10213.95,59.55,73.87
10896.64,55.82,69.24
10437.93,58.27,72.28
10049.15,60.52,75.08
12030.69,50.56,62.71
9822.23,61.92,76.81
10488.28,57.99,71.94
10095.67,60.24,74.73
10421.41,58.36,72.4
10266.68,59.24,73.49
10452.95,58.19,72.18
10416.92,58.39,72.43
10363.77,58.69,72.8
10380.17,58.59,72.69
9936.51,61.21,75.93
10767.44,56.49,70.07
11937.47,50.95,63.2
10267.9,59.23,73.48
12037.54,50.53,62.68
9801.48,62.05,76.98
